(declare-const a Real)
(declare-const b Real)
(declare-const c Real)
(assert (= (+ a b c) 3))
(assert (> a 0))
(assert (> b 0))
(assert (> c 0))
(assert (not (<= (+ (* -18 (pow (+ (* (pow a 2) (pow b 4)) (* (pow a 2) (pow c 4)) (* (pow a 3) (pow b 3)) (* (pow a 3) (pow c 3)) (* (pow a 4) (pow b 2)) (* (pow a 4) (pow c 2)) (* (pow b 2) (pow c 4)) (* (pow b 3) (pow c 3)) (* (pow b 4) (pow c 2)) (* a b (pow c 4)) (* a c (pow b 4)) (* b c (pow a 4)) (* 2 a (pow b 2) (pow c 3)) (* 2 a (pow b 3) (pow c 2)) (* 2 b (pow a 2) (pow c 3)) (* 2 b (pow a 3) (pow c 2)) (* 2 c (pow a 2) (pow b 3)) (* 2 c (pow a 3) (pow b 2)) (* 3 (pow a 2) (pow b 2) (pow c 2))) (/ 1 6))) (* (pow 3 (/ 1 2)) (+ 1 (pow (+ a b c) 2)))) 0)))
(check-sat)
(get-model)
(exit)